
Gurobi 12.0.2 (mac64[arm]) logging started Mon Jun 16 00:34:54 2025

Set parameter LogFile to value "/Users/yurunfeng/Documents/GitHub/LRGTS-store-location/result/gurobi/snyder/15nodes/15-0.8-4.log"
Gurobi Optimizer version 12.0.2 build v12.0.2rc0 (mac64[arm] - Darwin 24.5.0 24F74)

CPU model: Apple M4
Thread count: 10 physical cores, 10 logical processors, using up to 10 threads

Non-default parameters:
TimeLimit  1200

Optimize a model with 525 rows, 975 columns and 4035 nonzeros
Model fingerprint: 0xd6a5a15e
Variable types: 0 continuous, 975 integer (975 binary)
Coefficient statistics:
  Matrix range     [1e+00, 1e+00]
  Objective range  [6e+01, 3e+06]
  Bounds range     [1e+00, 1e+00]
  RHS range        [1e+00, 1e+00]
Found heuristic solution: objective 1.648316e+07
Presolve removed 45 rows and 240 columns
Presolve time: 0.01s
Presolved: 480 rows, 735 columns, 3450 nonzeros
Variable types: 0 continuous, 735 integer (735 binary)

Root relaxation: objective 9.638121e+05, 256 iterations, 0.00 seconds (0.00 work units)

    Nodes    |    Current Node    |     Objective Bounds      |     Work
 Expl Unexpl |  Obj  Depth IntInf | Incumbent    BestBd   Gap | It/Node Time

*    0     0               0    963812.13179 963812.132  0.00%     -    0s

Explored 1 nodes (256 simplex iterations) in 0.01 seconds (0.02 work units)
Thread count was 10 (of 10 available processors)

Solution count 2: 963812 1.64832e+07 

Optimal solution found (tolerance 1.00e-04)
Best objective 9.638121317897e+05, best bound 9.638121317897e+05, gap 0.0000%
